Version identifier: 20.1.0.0 | 2020-11-10 | 9bedb6d68
CPXPARAM_Threads                                 1
CPXPARAM_TimeLimit                               7200
CPXPARAM_MIP_Tolerances_MIPGap                   0
Generic callback                                 0x60
1 of 1 MIP starts provided solutions.
MIP start 'm1' defined initial solution with objective 1769.3161.
Tried aggregator 1 time.
Reduced MIP has 500501 rows, 501001 columns, and 1501000 nonzeros.
Reduced MIP has 1000 binaries, 0 generals, 0 SOSs, and 0 indicators.
Presolve time = 0.50 sec. (474.50 ticks)
Probing time = 0.07 sec. (62.57 ticks)
Tried aggregator 1 time.
Reduced MIP has 500501 rows, 501001 columns, and 1501000 nonzeros.
Reduced MIP has 1000 binaries, 0 generals, 0 SOSs, and 0 indicators.
Presolve time = 0.50 sec. (466.39 ticks)
Probing time = 0.07 sec. (62.57 ticks)
MIP emphasis: balance optimality and feasibility.
MIP search method: dynamic search.
Parallel mode: none, using 1 thread.
Root relaxation solution time = 0.17 sec. (192.73 ticks)

        Nodes                                         Cuts/
   Node  Left     Objective  IInf  Best Integer    Best Bound    ItCnt     Gap

*     0+    0                         1769.3161     2716.0000            53.51%
      0     0     1821.5279    14     1769.3161     2716.0000        0   53.51%
      0     2     1821.5279    14     1769.3161     1821.5278        0    2.95%
Elapsed time = 1285.71 sec. (992128.05 ticks, tree = 0.01 MB, solutions = 1)
      1     3     1817.0073     8     1769.3161     1821.5273    30208    2.95%
      2     4     1820.0062    24     1769.3161     1820.0061    38359    2.86%
      3     5     1816.7985     6     1769.3161     1820.0061    38820    2.86%
      4     6     1816.7930     2     1769.3161     1820.0061    38902    2.86%
      5     7     1816.7175     6     1769.3161     1820.0061    40539    2.86%
      6     8     1814.9397     2     1769.3161     1820.0061    55284    2.86%
      7     9     1814.8785     2     1769.3161     1820.0061    88681    2.86%
      8    10     1814.8600     2     1769.3161     1820.0061    95284    2.86%
      9    11     1814.8726     2     1769.3161     1820.0061    99841    2.86%
*    10+   10                         1812.4740     1820.0061             0.42%
     10    12     1813.4209     2     1812.4740     1820.0061   101193    0.42%
Elapsed time = 2430.50 sec. (1685687.27 ticks, tree = 9.44 MB, solutions = 2)
     11    13     1814.8587     2     1812.4740     1820.0061   114131    0.42%
     12    14     1813.6043     2     1812.4740     1820.0061   152653    0.42%
     13    15     1814.8157     2     1812.4740     1820.0061   180224    0.42%
     14    16     1814.1200     2     1812.4740     1820.0061   243483    0.42%
     15    17     1814.7388     4     1812.4740     1820.0061   244524    0.42%
     16    16        cutoff           1812.4740     1820.0061   246581    0.42%
     17    17     1814.7351     4     1812.4740     1820.0061   273470    0.42%
     18    16        cutoff           1812.4740     1820.0061   314298    0.42%
     19    17     1814.7292     4     1812.4740     1820.0061   314372    0.42%
     20    16        cutoff           1812.4740     1820.0061   315687    0.42%
Elapsed time = 2661.75 sec. (1816176.05 ticks, tree = 10.16 MB, solutions = 2)
     21    17     1814.7167     2     1812.4740     1820.0061   340977    0.42%
     22    18     1814.6975     4     1812.4740     1820.0061   361952    0.42%
     23    17        cutoff           1812.4740     1820.0061   410534    0.42%
     24    18     1814.6895     4     1812.4740     1820.0061   410659    0.42%
     25    17        cutoff           1812.4740     1820.0061   411990    0.42%
     26    18     1814.6744     2     1812.4740     1820.0061   431186    0.42%
     27    19     1814.6636     4     1812.4740     1820.0061   451104    0.42%
     28    18        cutoff           1812.4740     1820.0061   474128    0.42%
     29    19     1814.6562     4     1812.4740     1820.0061   490610    0.42%
     30    18        cutoff           1812.4740     1820.0061   569896    0.42%
Elapsed time = 2862.82 sec. (1948314.85 ticks, tree = 18.15 MB, solutions = 2)
     31    19     1814.6502     4     1812.4740     1820.0061   570074    0.42%
     32    18        cutoff           1812.4740     1820.0061   574208    0.42%
     33    19     1814.6473     2     1812.4740     1820.0061   574293    0.42%
     34    20     1814.6428     4     1812.4740     1820.0061   574352    0.42%
     35    19        cutoff           1812.4740     1820.0061   576199    0.42%
     36    20     1814.6372     4     1812.4740     1820.0061   576335    0.42%
     37    19        cutoff           1812.4740     1820.0061   577194    0.42%
     38    20     1814.6283     2     1812.4740     1820.0061   577459    0.42%
     39    21     1814.4938     2     1812.4740     1820.0061   579015    0.42%
     40    20        cutoff           1812.4740     1820.0061   580204    0.42%
Elapsed time = 3100.27 sec. (2083497.13 ticks, tree = 26.15 MB, solutions = 2)
*    41    13      integral     0     1814.4875     1820.0061   580269    0.30%
     41    13     1814.4875     0     1814.4875     1820.0061   580269    0.30%
     43    13     1819.6754     7     1814.4875     1820.0060   583160    0.30%
     44    14     1819.5437     6     1814.4875     1820.0060   584286    0.30%
     45    15     1819.3812     7     1814.4875     1820.0060   585098    0.30%
     46    16     1818.8937     2     1814.4875     1820.0060   586817    0.30%
     47    17     1818.7868     2     1814.4875     1820.0060   588720    0.30%
     48    18     1816.9978     5     1814.4875     1820.0060   592091    0.30%
     49    19     1818.6239     2     1814.4875     1820.0060   592843    0.30%
*    50+    6                         1818.1622     1820.0060             0.10%
     50     8     1818.7436     2     1818.1622     1820.0060   593459    0.10%
     51     9     1818.7152     2     1818.1622     1820.0060   593796    0.10%
Elapsed time = 3527.43 sec. (2335703.72 ticks, tree = 16.36 MB, solutions = 4)
     52     8        cutoff           1818.1622     1820.0060   594283    0.10%
     53     9     1818.5277     2     1818.1622     1820.0060   595314    0.10%
     54     8        cutoff           1818.1622     1820.0060   595612    0.10%
     55     9     1818.3089     2     1818.1622     1820.0060   596687    0.10%
     57     9     1818.2156     2     1818.1622     1820.0060   597100    0.10%
     61     7     1819.8654    16     1818.1622     1819.8653   598500    0.09%
     62     8     1819.7873    15     1818.1622     1819.8637   598991    0.09%
     63     9     1819.6041    19     1818.1622     1819.8637   600766    0.09%
     64    10     1819.5564    22     1818.1622     1819.8637   601833    0.09%
     65    11     1819.3899    18     1818.1622     1819.8637   602604    0.09%
Elapsed time = 3806.08 sec. (2515125.72 ticks, tree = 20.71 MB, solutions = 4)
     66    12     1819.1712    17     1818.1622     1819.8637   615280    0.09%
     67    13     1818.9904    18     1818.1622     1819.8637   623115    0.09%
     68    14     1818.8863    21     1818.1622     1819.8637   623921    0.09%
     69    15     1818.7322    22     1818.1622     1819.8637   625564    0.09%
     70    16     1818.5451    23     1818.1622     1819.8637   626827    0.09%
     71    17     1818.4364    20     1818.1622     1819.8637   631646    0.09%
     72    16        cutoff           1818.1622     1819.8637   643826    0.09%
     73    15        cutoff           1818.1622     1819.8637   644234    0.09%
     74    16     1819.2314     8     1818.1622     1819.7865   648148    0.09%
     75    17     1819.1538     8     1818.1622     1819.7865   648328    0.09%
Elapsed time = 4378.24 sec. (2857167.20 ticks, tree = 17.97 MB, solutions = 4)
     76    18     1818.7806     6     1818.1622     1819.7865   650242    0.09%
     77    19     1818.5803     7     1818.1622     1819.7865   651352    0.09%
     78    20     1818.5498     6     1818.1622     1819.7865   651552    0.09%
     79    19        cutoff           1818.1622     1819.7865   651712    0.09%
     80    20     1818.4792     4     1818.1622     1819.7865   652158    0.09%
     81    19        cutoff           1818.1622     1819.7865   652665    0.09%
     82    18        cutoff           1818.1622     1819.7865   657248    0.09%
     83    17        cutoff           1818.1622     1819.6753   663604    0.08%
     84    18     1819.4418     4     1818.1622     1819.6040   665181    0.08%
     85    19     1819.2944     4     1818.1622     1819.6040   666412    0.08%
Elapsed time = 4857.58 sec. (3163343.61 ticks, tree = 18.15 MB, solutions = 4)
     86    20     1818.2208     4     1818.1622     1819.6040   669635    0.08%
     87    21     1819.2535     4     1818.1622     1819.6040   669971    0.08%
     88    22     1819.0141     2     1818.1622     1819.6040   671461    0.08%
     89    23     1818.3363     4     1818.1622     1819.6040   672771    0.08%
     90    22        cutoff           1818.1622     1819.6040   673116    0.08%
     91    21        cutoff           1818.1622     1819.6040   673343    0.08%
     92    20        cutoff           1818.1622     1819.6040   673387    0.08%
     93    21     1818.9885     5     1818.1622     1819.5563   677427    0.08%
     94    22     1818.7233     7     1818.1622     1819.5563   679976    0.08%
     95    23     1818.4222     4     1818.1622     1819.5563   682051    0.08%
Elapsed time = 5271.09 sec. (3430208.45 ticks, tree = 30.50 MB, solutions = 4)
     96    24     1818.2326     4     1818.1622     1819.5563   683839    0.08%
     97    23        cutoff           1818.1622     1819.5563   683904    0.08%
     98    22        cutoff           1818.1622     1819.5563   683999    0.08%
     99    23     1819.0777     6     1818.1622     1819.3898   688180    0.07%
    100    24     1818.5701     9     1818.1622     1819.3898   690868    0.07%
    101    23        cutoff           1818.1622     1819.3898   691523    0.07%
    102    24     1818.4539     8     1818.1622     1819.3898   692531    0.07%
    103    23        cutoff           1818.1622     1819.3898   693198    0.07%
    104    24     1818.3238     4     1818.1622     1819.3898   693479    0.07%
    105    23        cutoff           1818.1622     1819.3898   693949    0.07%
Elapsed time = 5591.47 sec. (3621632.84 ticks, tree = 30.68 MB, solutions = 4)
    107    21        cutoff           1818.1622     1819.3812   697208    0.07%
    108    22     1819.0944     7     1818.1622     1819.3809   698799    0.07%
    109    23     1818.6745     8     1818.1622     1819.3809   701670    0.07%
    110    22        cutoff           1818.1622     1819.3809   702625    0.07%
    111    23     1818.2600     4     1818.1622     1819.3809   704218    0.07%
    112    22        cutoff           1818.1622     1819.3809   704371    0.07%
    114    22     1819.2702     4     1818.1622     1819.2699   705945    0.06%
    115    23     1819.0645     4     1818.1622     1819.2691   707172    0.06%
    116    24     1819.0580     2     1818.1622     1819.2535   708610    0.06%
    117    25     1819.0141     2     1818.1622     1819.2535   710091    0.06%
Elapsed time = 5983.24 sec. (3872777.20 ticks, tree = 23.05 MB, solutions = 4)
    118    24        cutoff           1818.1622     1819.2535   711934    0.06%
    119    25     1818.9852     2     1818.1622     1819.2535   721905    0.06%
    120    24        cutoff           1818.1622     1819.2535   766710    0.06%
    121    25     1818.9809     2     1818.1622     1819.2535   773020    0.06%
    122    24        cutoff           1818.1622     1819.2535   801655    0.06%
    123    25     1818.9380     2     1818.1622     1819.2535   807458    0.06%
    124    24        cutoff           1818.1622     1819.2535   867233    0.06%
    125    25     1818.9358     2     1818.1622     1819.2535   870392    0.06%
    126    24        cutoff           1818.1622     1819.2535   902497    0.06%
    127    23        cutoff           1818.1622     1819.2535   935993    0.06%
Elapsed time = 6119.65 sec. (3973880.36 ticks, tree = 23.05 MB, solutions = 4)
*   128    12      integral     0     1818.8819     1819.2535   937863    0.02%
    129    13     1819.0556     2     1818.8819     1819.2532   939723    0.02%
    130    12        cutoff           1818.8819     1819.2532   967923    0.02%
    132    12     1819.1127     4     1818.8819     1819.2312  1043648    0.02%
    133    11        cutoff           1818.8819     1819.2312  1089981    0.02%
    134    10        cutoff           1818.8819     1819.2312  1158431    0.02%
    135    11     1819.0614     6     1818.8819     1819.1712  1206345    0.02%
    136    10        cutoff           1818.8819     1819.1712  1261535    0.02%
    137     9        cutoff           1818.8819     1819.1712  1265548    0.02%
    138     8        cutoff           1818.8819     1819.1533  1293732    0.01%
    139     9     1819.0152     6     1818.8819     1819.0941  1294280    0.01%
Elapsed time = 6312.61 sec. (4106689.61 ticks, tree = 5.08 MB, solutions = 5)
    140     8        cutoff           1818.8819     1819.0941  1297959    0.01%
    142     6        cutoff           1818.8819     1819.0777  1298443    0.01%
    143     5        cutoff           1818.8819     1819.0643  1299275    0.01%
    144     6     1818.9417     4     1818.8819     1819.0613  1301051    0.01%
    145     5        cutoff           1818.8819     1819.0613  1301344    0.01%
    148     2        cutoff           1818.8819     1818.9885  1301963    0.01%
    150     0        cutoff           1818.8819     1818.8819  1302236    0.00%

User cuts applied:  10

Root node processing (before b&c):
  Real time             = 1285.69 sec. (992129.77 ticks)
Sequential b&c:
  Real time             = 5215.66 sec. (3236190.11 ticks)
                          ------------
Total (root+branch&cut) = 6501.34 sec. (4228319.88 ticks)
@Parameters: 
is_S_cut                                true
is_add_all_yinF                         true
is_start_value                          true
is_usercut                              true
is_visualization                        false
uc_only_rootnode                        false

data                                    Qi
fn                                      data/Qi/instance_500_1000.csv
mode                                    ZLP
solver                                  cplex

p                                       5
r                                       2

EPS                                     1.0e-06
EPS_vio                                 1.0e-04
beta                                    0.10
gap                                     0.00
nodelimit                               Inf
timelimit                               7200.00


@PrintInfos
ItCnt: 1302236
Current gap: 0.00 %
Termination Status: OPTIMAL
Primal Status: FEASIBLE_POINT
Solve Time: 6501.34 sec
Objective Value: 1818.881907
Number of Nodes:    151

CutInfo: [phase] num / time (sec) 
ZLP             [phase1]     0 / 0.00 [rLC]     4 / 11.88 [rUC]     2 / 5.24 [sLC]     0 / 10.49 [sUC]     8 / 440.17 
OldSubmodular   [phase1]     0 / 0.00 [rLC]     0 / 0.00 [rUC]     0 / 0.00 [sLC]     0 / 0.00 [sUC]     0 / 0.00 
NewSubmodular   [phase1]     0 / 0.00 [rLC]     0 / 0.00 [rUC]     0 / 0.00 [sLC]     0 / 0.00 [sUC]     0 / 0.00 
PMP             [phase1]     0 / 0.00 [rLC]     5 / 8.35 [rUC]     2 / 3.66 [sLC]     4 / 9.60 [sUC]   184 / 369.01 
Separation Round: [phase1] 0  [rLC] 5  [rUC] 2  [sLC] 4  [sUC] 184
Root Best Bound 1820.006150
Root Best Integer: 1769.316120
Best Bound: 1818.881907
Best Integer: 1818.881907

